N = 8;
Capacity = 14;
Demand = [7, 1, 6, 3, 7, 2, 3, 9];
Distance = [|
  0, 49, 16, 27, 38, 17, 46, 68, 37
| 49, 0, 34, 69, 64, 65, 93, 20, 42
| 16, 34, 0, 42, 36, 31, 59, 54, 25
| 27, 69, 42, 0, 60, 26, 42, 88, 63
| 38, 64, 36, 60, 0, 35, 49, 81, 23
| 17, 65, 31, 26, 35, 0, 29, 85, 44
| 46, 93, 59, 42, 49, 29, 0, 113, 67
| 68, 20, 54, 88, 81, 85, 113, 0, 59
| 37, 42, 25, 63, 23, 44, 67, 59, 0
|];
